100 2457
0 1
0 2
0 4
0 6
0 7
0 8
0 9
0 10
0 11
0 12
0 13
0 14
0 15
0 23
0 24
0 28
0 31
0 34
0 35
0 36
0 41
0 42
0 44
0 46
0 49
0 51
0 52
0 54
0 55
0 58
0 61
0 64
0 65
0 66
0 68
0 70
0 72
0 73
0 77
0 79
0 83
0 84
0 85
0 90
0 93
0 94
0 95
0 96
0 97
1 2
1 4
1 6
1 10
1 12
1 14
1 15
1 16
1 17
1 20
1 22
1 23
1 27
1 29
1 30
1 33
1 35
1 36
1 37
1 39
1 41
1 43
1 44
1 45
1 46
1 47
1 50
1 51
1 52
1 53
1 54
1 60
1 61
1 63
1 64
1 65
1 67
1 68
1 71
1 73
1 77
1 79
1 80
1 82
1 84
1 87
1 93
1 94
1 95
1 96
1 97
2 5
2 7
2 8
2 12
2 13
2 14
2 15
2 17
2 18
2 20
2 22
2 23
2 24
2 26
2 33
2 34
2 36
2 37
2 38
2 42
2 45
2 46
2 47
2 50
2 51
2 52
2 53
2 54
2 56
2 57
2 58
2 59
2 60
2 65
2 66
2 68
2 70
2 71
2 72
2 74
2 76
2 78
2 79
2 82
2 84
2 86
2 87
2 89
2 90
2 97
2 98
3 4
3 6
3 7
3 8
3 9
3 11
3 13
3 14
3 16
3 18
3 20
3 21
3 23
3 24
3 26
3 27
3 28
3 29
3 33
3 34
3 37
3 38
3 41
3 42
3 43
3 44
3 45
3 46
3 48
3 49
3 51
3 52
3 55
3 56
3 60
3 62
3 65
3 66
3 68
3 71
3 72
3 73
3 75
3 81
3 82
3 84
3 85
3 86
3 87
3 88
3 90
3 92
3 95
3 98
3 99
4 5
4 6
4 7
4 9
4 11
4 13
4 14
4 15
4 16
4 18
4 19
4 21
4 22
4 23
4 24
4 29
4 30
4 32
4 33
4 34
4 37
4 41
4 42
4 43
4 44
4 50
4 51
4 53
4 54
4 57
4 59
4 60
4 62
4 63
4 65
4 66
4 67
4 69
4 70
4 73
4 74
4 75
4 78
4 79
4 85
4 86
4 94
4 97
4 99
5 6
5 7
5 10
5 12
5 13
5 19
5 20
5 23
5 25
5 26
5 34
5 36
5 39
5 44
5 48
5 50
5 51
5 53
5 54
5 56
5 57
5 60
5 62
5 63
5 65
5 72
5 73
5 75
5 79
5 84
5 85
5 86
5 87
5 92
5 93
5 95
6 7
6 10
6 11
6 15
6 16
6 19
6 20
6 21
6 26
6 29
6 34
6 36
6 37
6 38
6 39
6 40
6 41
6 43
6 44
6 45
6 47
6 51
6 53
6 54
6 60
6 62
6 65
6 66
6 70
6 71
6 73
6 74
6 75
6 77
6 78
6 80
6 82
6 84
6 85
6 86
6 87
6 88
6 94
6 95
6 96
6 98
7 8
7 10
7 11
7 14
7 15
7 16
7 18
7 20
7 21
7 27
7 28
7 36
7 38
7 39
7 40
7 43
7 45
7 48
7 49
7 52
7 53
7 56
7 59
7 62
7 63
7 65
7 66
7 68
7 69
7 70
7 72
7 75
7 77
7 78
7 82
7 84
7 87
7 88
7 91
7 92
7 98
8 11
8 13
8 15
8 16
8 17
8 18
8 20
8 23
8 26
8 27
8 28
8 32
8 34
8 37
8 38
8 39
8 42
8 44
8 45
8 46
8 48
8 49
8 50
8 51
8 54
8 57
8 59
8 64
8 65
8 68
8 72
8 73
8 75
8 78
8 80
8 83
8 85
8 86
8 87
8 94
8 96
8 97
8 99
9 12
9 13
9 17
9 18
9 22
9 23
9 24
9 25
9 26
9 27
9 30
9 34
9 36
9 37
9 38
9 39
9 41
9 43
9 44
9 45
9 47
9 49
9 51
9 52
9 53
9 57
9 58
9 61
9 63
9 64
9 65
9 66
9 67
9 68
9 69
9 70
9 72
9 75
9 76
9 77
9 78
9 84
9 86
9 88
9 92
9 98
10 12
10 13
10 14
10 15
10 17
10 18
10 19
10 21
10 22
10 24
10 25
10 26
10 27
10 28
10 29
10 30
10 31
10 32
10 34
10 35
10 36
10 40
10 41
10 42
10 44
10 45
10 46
10 47
10 49
10 51
10 52
10 54
10 55
10 59
10 60
10 61
10 62
10 63
10 64
10 65
10 66
10 68
10 69
10 70
10 77
10 79
10 84
10 85
10 86
10 88
10 89
10 90
10 93
10 95
10 99
11 12
11 14
11 16
11 17
11 18
11 19
11 21
11 22
11 27
11 32
11 33
11 37
11 41
11 43
11 45
11 49
11 51
11 52
11 55
11 56
11 57
11 58
11 60
11 61
11 62
11 65
11 66
11 70
11 72
11 73
11 75
11 77
11 78
11 84
11 87
11 88
11 89
11 90
11 92
11 94
11 95
11 96
11 97
11 99
12 13
12 14
12 15
12 16
12 17
12 18
12 22
12 25
12 26
12 28
12 29
12 31
12 32
12 37
12 38
12 40
12 47
12 48
12 49
12 54
12 56
12 57
12 58
12 59
12 60
12 62
12 63
12 64
12 67
12 68
12 70
12 73
12 75
12 76
12 78
12 79
12 82
12 83
12 84
12 85
12 88
12 91
12 95
12 97
12 98
12 99
13 16
13 20
13 21
13 22
13 27
13 28
13 29
13 34
13 36
13 38
13 39
13 40
13 41
13 43
13 44
13 48
13 49
13 50
13 51
13 52
13 53
13 56
13 58
13 59
13 60
13 62
13 63
13 64
13 65
13 67
13 69
13 70
13 71
13 72
13 73
13 74
13 75
13 76
13 79
13 81
13 83
13 85
13 86
13 87
13 92
13 97
13 98
14 15
14 16
14 17
14 19
14 23
14 25
14 26
14 27
14 28
14 29
14 30
14 31
14 33
14 35
14 36
14 37
14 39
14 42
14 43
14 45
14 48
14 50
14 51
14 53
14 54
14 55
14 57
14 58
14 61
14 62
14 65
14 66
14 68
14 69
14 72
14 73
14 79
14 80
14 84
14 86
14 88
14 89
14 91
14 92
14 93
14 96
14 99
15 17
15 18
15 20
15 21
15 23
15 24
15 25
15 29
15 30
15 31
15 33
15 42
15 45
15 48
15 50
15 52
15 57
15 59
15 61
15 63
15 66
15 67
15 68
15 70
15 75
15 79
15 81
15 85
15 86
15 90
15 91
15 93
15 95
15 96
15 97
15 99
16 17
16 21
16 23
16 28
16 34
16 36
16 38
16 41
16 42
16 44
16 45
16 46
16 50
16 52
16 53
16 55
16 58
16 60
16 61
16 63
16 64
16 67
16 70
16 72
16 73
16 75
16 76
16 77
16 78
16 80
16 82
16 90
16 93
16 94
16 95
16 97
16 99
17 18
17 19
17 21
17 22
17 23
17 24
17 26
17 29
17 30
17 32
17 33
17 34
17 35
17 36
17 38
17 40
17 41
17 42
17 48
17 51
17 56
17 57
17 60
17 62
17 63
17 66
17 67
17 68
17 69
17 72
17 74
17 77
17 78
17 79
17 82
17 83
17 84
17 85
17 86
17 89
17 93
17 98
18 22
18 23
18 27
18 29
18 34
18 36
18 38
18 39
18 41
18 45
18 46
18 55
18 57
18 58
18 59
18 65
18 66
18 68
18 69
18 71
18 72
18 74
18 81
18 84
18 85
18 87
18 89
18 90
18 93
18 94
18 96
18 97
19 21
19 22
19 25
19 27
19 28
19 29
19 31
19 32
19 34
19 36
19 38
19 39
19 41
19 43
19 45
19 48
19 49
19 52
19 54
19 55
19 56
19 60
19 62
19 63
19 64
19 67
19 72
19 75
19 79
19 84
19 85
19 87
19 89
19 90
19 93
19 97
20 22
20 24
20 32
20 35
20 36
20 41
20 42
20 43
20 45
20 49
20 55
20 56
20 62
20 63
20 64
20 65
20 70
20 72
20 75
20 76
20 78
20 79
20 81
20 86
20 89
20 92
20 94
20 99
21 24
21 25
21 33
21 37
21 39
21 41
21 42
21 43
21 44
21 48
21 49
21 51
21 52
21 53
21 54
21 55
21 57
21 61
21 63
21 65
21 66
21 67
21 68
21 71
21 72
21 73
21 75
21 79
21 80
21 85
21 87
21 91
21 92
21 94
21 96
21 97
21 98
22 23
22 24
22 25
22 26
22 27
22 29
22 31
22 32
22 33
22 34
22 35
22 38
22 40
22 43
22 44
22 45
22 48
22 52
22 56
22 61
22 62
22 63
22 64
22 65
22 66
22 68
22 72
22 74
22 77
22 78
22 79
22 81
22 82
22 88
22 92
22 93
22 94
22 96
22 98
22 99
23 24
23 26
23 27
23 31
23 33
23 34
23 35
23 36
23 38
23 39
23 43
23 44
23 45
23 46
23 49
23 51
23 52
23 53
23 54
23 56
23 57
23 59
23 60
23 65
23 67
23 69
23 70
23 71
23 77
23 79
23 80
23 84
23 85
23 87
23 88
23 90
23 91
23 93
23 95
23 96
23 98
23 99
24 25
24 30
24 31
24 32
24 33
24 34
24 37
24 38
24 40
24 42
24 47
24 49
24 52
24 55
24 56
24 58
24 61
24 62
24 64
24 68
24 70
24 73
24 75
24 77
24 78
24 80
24 81
24 82
24 83
24 84
24 85
24 86
24 88
24 89
24 90
24 91
24 93
24 94
24 95
24 97
24 99
25 27
25 28
25 32
25 36
25 37
25 39
25 40
25 42
25 44
25 46
25 49
25 51
25 52
25 55
25 57
25 59
25 60
25 61
25 65
25 67
25 70
25 71
25 72
25 74
25 76
25 79
25 80
25 81
25 86
25 87
25 88
25 89
25 90
25 91
25 92
25 95
26 27
26 30
26 34
26 35
26 37
26 39
26 42
26 43
26 45
26 46
26 47
26 50
26 53
26 55
26 56
26 57
26 58
26 59
26 61
26 62
26 64
26 66
26 68
26 74
26 76
26 78
26 80
26 83
26 84
26 87
26 92
26 94
26 95
26 96
26 97
26 98
26 99
27 28
27 29
27 30
27 35
27 36
27 37
27 39
27 40
27 47
27 48
27 50
27 51
27 52
27 56
27 58
27 59
27 60
27 62
27 64
27 65
27 66
27 67
27 68
27 74
27 76
27 77
27 84
27 85
27 86
27 87
27 89
27 90
27 91
27 92
27 95
28 29
28 30
28 31
28 33
28 39
28 41
28 42
28 44
28 46
28 47
28 50
28 51
28 52
28 53
28 54
28 55
28 58
28 59
28 62
28 63
28 65
28 67
28 68
28 69
28 71
28 72
28 73
28 76
28 78
28 80
28 81
28 83
28 86
28 87
28 88
28 89
28 98
28 99
29 30
29 33
29 36
29 38
29 39
29 42
29 44
29 48
29 50
29 52
29 54
29 58
29 60
29 63
29 64
29 66
29 68
29 70
29 71
29 72
29 73
29 74
29 75
29 76
29 78
29 79
29 80
29 82
29 85
29 86
29 90
29 92
30 32
30 35
30 39
30 40
30 42
30 45
30 46
30 47
30 48
30 50
30 52
30 56
30 57
30 59
30 60
30 67
30 71
30 73
30 74
30 75
30 76
30 77
30 78
30 80
30 82
30 84
30 86
30 90
30 92
30 95
30 97
30 99
31 32
31 33
31 35
31 36
31 37
31 38
31 39
31 43
31 45
31 46
31 49
31 50
31 51
31 54
31 55
31 56
31 57
31 58
31 59
31 61
31 62
31 63
31 68
31 70
31 71
31 72
31 74
31 77
31 79
31 83
31 87
31 88
31 89
31 90
31 93
31 95
31 97
31 98
32 38
32 44
32 45
32 46
32 50
32 55
32 57
32 59
32 61
32 66
32 68
32 74
32 76
32 79
32 80
32 81
32 86
32 91
32 92
32 93
32 94
32 97
32 98
32 99
33 34
33 35
33 38
33 41
33 43
33 46
33 50
33 51
33 52
33 53
33 54
33 56
33 59
33 60
33 62
33 63
33 64
33 65
33 66
33 67
33 68
33 69
33 71
33 74
33 75
33 77
33 81
33 83
33 84
33 86
33 87
33 89
33 91
33 93
33 95
33 96
33 99
34 35
34 36
34 39
34 41
34 42
34 45
34 48
34 51
34 53
34 55
34 56
34 58
34 61
34 62
34 63
34 64
34 65
34 66
34 69
34 71
34 73
34 74
34 76
34 78
34 80
34 81
34 83
34 84
34 85
34 86
34 88
34 90
34 91
34 92
34 93
34 96
34 97
34 98
35 38
35 39
35 42
35 43
35 44
35 45
35 47
35 48
35 51
35 54
35 55
35 56
35 58
35 60
35 61
35 62
35 63
35 64
35 65
35 70
35 74
35 76
35 77
35 78
35 79
35 80
35 81
35 83
35 85
35 87
35 92
35 95
35 96
35 97
35 98
35 99
36 40
36 41
36 42
36 46
36 49
36 50
36 51
36 52
36 54
36 56
36 61
36 62
36 64
36 66
36 68
36 69
36 70
36 73
36 76
36 77
36 78
36 79
36 80
36 83
36 84
36 85
36 86
36 89
36 95
36 97
36 98
36 99
37 39
37 41
37 42
37 46
37 50
37 51
37 54
37 55
37 57
37 60
37 61
37 66
37 74
37 76
37 77
37 79
37 80
37 85
37 86
37 88
37 89
37 94
37 96
37 98
38 40
38 42
38 46
38 47
38 52
38 53
38 55
38 60
38 63
38 64
38 65
38 67
38 69
38 70
38 72
38 74
38 76
38 78
38 79
38 81
38 84
38 87
38 92
38 94
38 96
38 97
39 42
39 44
39 46
39 47
39 48
39 49
39 52
39 53
39 60
39 61
39 64
39 68
39 70
39 71
39 72
39 74
39 79
39 80
39 83
39 85
39 88
39 92
39 98
39 99
40 42
40 50
40 52
40 53
40 55
40 58
40 59
40 61
40 62
40 63
40 64
40 66
40 68
40 69
40 70
40 71
40 73
40 76
40 77
40 78
40 79
40 80
40 81
40 86
40 89
40 94
40 95
40 97
40 98
40 99
41 42
41 43
41 44
41 45
41 46
41 52
41 55
41 56
41 57
41 59
41 61
41 62
41 65
41 66
41 68
41 72
41 78
41 80
41 83
41 84
41 87
41 88
41 89
41 91
41 95
41 97
42 45
42 46
42 48
42 49
42 50
42 55
42 56
42 60
42 62
42 69
42 70
42 71
42 72
42 73
42 77
42 78
42 79
42 80
42 81
42 83
42 84
42 86
42 87
42 88
42 90
42 91
42 93
42 95
42 97
42 98
42 99
43 45
43 47
43 49
43 51
43 53
43 56
43 57
43 59
43 62
43 64
43 65
43 66
43 69
43 70
43 71
43 72
43 74
43 75
43 76
43 77
43 78
43 79
43 82
43 83
43 86
43 89
43 92
43 93
43 95
43 96
43 97
43 98
43 99
44 45
44 46
44 47
44 48
44 51
44 53
44 54
44 55
44 56
44 60
44 61
44 62
44 65
44 66
44 67
44 69
44 70
44 71
44 72
44 73
44 75
44 76
44 77
44 80
44 81
44 82
44 83
44 88
44 91
44 93
44 96
45 47
45 49
45 50
45 51
45 53
45 54
45 56
45 57
45 58
45 60
45 62
45 64
45 65
45 67
45 77
45 78
45 79
45 83
45 84
45 85
45 87
45 88
45 89
45 90
45 91
45 92
45 94
45 95
45 99
46 49
46 51
46 52
46 53
46 55
46 59
46 61
46 62
46 63
46 66
46 68
46 69
46 71
46 73
46 75
46 78
46 81
46 82
46 84
46 85
46 86
46 88
46 89
46 90
46 92
46 94
46 95
46 98
47 48
47 51
47 53
47 55
47 59
47 60
47 63
47 64
47 65
47 66
47 69
47 70
47 71
47 74
47 75
47 77
47 78
47 81
47 82
47 83
47 84
47 85
47 86
47 92
47 93
47 96
47 98
48 49
48 54
48 55
48 57
48 59
48 62
48 63
48 64
48 67
48 70
48 72
48 73
48 74
48 76
48 78
48 79
48 80
48 81
48 82
48 84
48 86
48 89
48 90
48 91
48 93
48 94
48 95
48 97
49 50
49 51
49 55
49 57
49 58
49 62
49 65
49 68
49 69
49 73
49 74
49 77
49 78
49 79
49 80
49 84
49 85
49 86
49 87
49 91
49 92
49 93
49 94
49 95
49 99
50 56
50 57
50 58
50 59
50 61
50 68
50 69
50 70
50 72
50 75
50 76
50 80
50 81
50 82
50 83
50 84
50 86
50 91
50 94
50 95
50 99
51 55
51 57
51 58
51 60
51 61
51 66
51 68
51 72
51 74
51 75
51 77
51 78
51 79
51 80
51 81
51 82
51 85
51 86
51 90
51 92
51 95
51 98
51 99
52 53
52 54
52 55
52 57
52 59
52 60
52 65
52 70
52 71
52 72
52 73
52 75
52 76
52 81
52 83
52 84
52 90
52 91
52 93
52 94
52 98
52 99
53 54
53 55
53 67
53 68
53 69
53 71
53 73
53 74
53 76
53 77
53 80
53 82
53 83
53 84
53 88
53 90
53 91
53 94
53 96
53 97
54 55
54 58
54 62
54 64
54 65
54 66
54 67
54 68
54 71
54 72
54 73
54 74
54 78
54 79
54 80
54 81
54 84
54 88
54 94
54 95
54 96
54 97
55 56
55 61
55 62
55 63
55 68
55 69
55 70
55 71
55 74
55 76
55 77
55 79
55 80
55 81
55 82
55 83
55 84
55 86
55 87
55 88
55 90
55 94
55 95
55 97
55 98
56 57
56 58
56 59
56 62
56 64
56 65
56 66
56 67
56 68
56 71
56 74
56 76
56 77
56 80
56 81
56 82
56 87
56 90
56 91
56 92
56 93
56 94
56 95
56 97
57 60
57 62
57 66
57 71
57 73
57 74
57 75
57 76
57 80
57 81
57 86
57 87
57 89
57 91
57 93
57 95
57 97
58 62
58 63
58 64
58 67
58 68
58 70
58 71
58 72
58 74
58 75
58 81
58 82
58 86
58 90
58 93
58 96
58 98
59 61
59 66
59 67
59 70
59 72
59 75
59 78
59 79
59 81
59 83
59 85
59 86
59 87
59 88
59 91
59 93
59 95
59 98
59 99
60 61
60 62
60 64
60 66
60 69
60 71
60 72
60 75
60 76
60 78
60 82
60 85
60 94
60 98
61 62
61 65
61 66
61 69
61 70
61 71
61 72
61 73
61 74
61 75
61 76
61 79
61 80
61 81
61 82
61 83
61 88
61 89
61 90
61 93
61 99
62 63
62 64
62 66
62 67
62 68
62 69
62 70
62 78
62 80
62 81
62 85
62 87
62 90
62 91
62 92
62 96
62 98
62 99
63 65
63 66
63 68
63 69
63 70
63 71
63 73
63 77
63 80
63 81
63 82
63 83
63 85
63 86
63 87
63 88
63 89
63 90
63 92
63 94
63 96
63 99
64 67
64 68
64 69
64 72
64 73
64 74
64 75
64 77
64 78
64 80
64 83
64 89
64 90
64 92
64 93
64 94
64 97
64 99
65 66
65 67
65 69
65 70
65 71
65 73
65 74
65 75
65 78
65 82
65 83
65 84
65 85
65 87
65 88
65 89
65 90
65 92
65 93
65 94
65 96
65 97
65 98
66 68
66 69
66 70
66 71
66 75
66 76
66 77
66 80
66 81
66 84
66 85
66 87
66 96
66 97
66 98
66 99
67 68
67 69
67 70
67 71
67 72
67 76
67 77
67 80
67 83
67 84
67 85
67 88
67 90
67 93
67 94
67 95
67 97
68 71
68 72
68 74
68 76
68 77
68 80
68 81
68 83
68 86
68 87
68 88
68 89
68 90
68 91
68 95
68 96
68 97
68 99
69 72
69 78
69 79
69 81
69 82
69 83
69 85
69 87
69 88
69 90
69 95
69 96
69 97
69 98
69 99
70 72
70 73
70 74
70 75
70 80
70 83
70 84
70 85
70 88
70 89
70 93
70 95
71 73
71 76
71 78
71 79
71 82
71 84
71 85
71 87
71 90
71 93
71 95
71 99
72 76
72 80
72 82
72 83
72 84
72 85
72 87
72 90
72 94
72 97
72 99
73 78
73 79
73 81
73 84
73 85
73 86
73 88
73 89
73 90
73 93
73 97
73 99
74 77
74 80
74 82
74 85
74 87
74 89
74 90
74 91
74 94
74 95
74 96
74 98
74 99
75 76
75 78
75 79
75 80
75 82
75 83
75 87
75 88
75 89
75 90
75 91
75 92
75 95
75 97
75 98
76 77
76 79
76 81
76 83
76 84
76 85
76 86
76 88
76 89
76 91
76 92
76 94
76 96
77 78
77 80
77 83
77 84
77 85
77 88
77 89
77 90
77 92
77 93
77 96
77 97
78 79
78 80
78 85
78 86
78 87
78 88
78 90
78 91
78 93
78 94
78 97
78 98
79 80
79 81
79 82
79 86
79 87
79 89
79 92
79 95
79 99
80 84
80 85
80 87
80 88
80 90
80 92
80 96
80 97
80 98
81 84
81 87
81 88
81 92
81 94
81 95
82 85
82 86
82 88
82 89
82 90
82 91
82 93
82 94
82 96
82 99
83 84
83 86
83 87
83 96
83 99
84 86
84 87
84 89
84 90
84 92
84 93
84 95
85 86
85 91
85 95
85 96
85 97
85 99
86 88
86 90
86 91
86 93
86 95
86 99
87 88
87 89
87 91
87 92
87 93
87 95
87 97
88 89
88 90
88 93
88 94
88 99
89 90
89 91
89 92
89 96
89 97
89 98
89 99
90 92
90 93
90 94
90 96
90 97
90 98
91 93
91 95
91 96
91 97
92 93
92 94
92 98
93 94
93 97
93 99
94 95
94 96
94 98
95 97
95 98
98 99
